NAME: tsp35_3
COMMENT: 35-tsp problem (Padberg/Rinaldi)
TYPE: TSP
DIMENSION: 35
EDGE_WEIGHT_TYPE : EUC_2D
NODE_COORD_SECTION
1 9 24
2 24 10
3 32 0
4 11 11
5 3 25
6 13 2
7 23 40
8 22 33
9 7 24
10 3 2
11 6 30
12 32 34
13 39 2
14 26 35
15 17 6
16 22 25
17 19 36
18 9 30
19 1 39
20 20 19
21 36 4
22 10 40
23 34 4
24 28 10
25 13 38
26 5 25
27 19 8
28 30 34
29 38 17
30 12 22
31 25 3
32 10 19
33 17 2
34 29 20
35 22 6
